
220.0
220.0
220.0
220.0
220.0
240.0
220.0
220.0
220.0
240.0
220.0
220.0
240.0
220.0
220.0
220.0
220.0
220.0
240.0
220.0
220.0
220.0
220.0
220.0
220.0
220.0
220.0
220.0
220.0
220.0
220.0
260.0
220.0
220.0
220.0
220.0
220.0
340.0
220.0
220.0
240.0
220.0
220.0
220.0
220.0
220.0
220.0
220.0
220.0
220.0